p cnf 703 2080
-11 -4 0
-11 -6 0
11 4 6 0
-12 -2 0
-12 10 0
12 2 -10 0
-13 -1 0
-13 10 0
13 1 -10 0
-14 2 0
-14 -13 0
14 -2 13 0
-15 -12 0
-15 -14 0
15 12 14 0
-16 11 0
-16 15 0
16 -11 -15 0
-17 1 0
-17 -10 0
17 -1 10 0
-18 -2 0
-18 -17 0
18 2 17 0
-19 2 0
-19 -10 0
19 -2 10 0
-20 -8 0
-20 -19 0
20 8 19 0
-21 -18 0
-21 20 0
21 18 -20 0
-22 -16 0
-22 -21 0
22 16 21 0
-23 -3 0
-23 -22 0
23 3 22 0
-24 -3 0
-24 -6 0
24 3 6 0
-25 -1 0
-25 -24 0
25 1 24 0
-26 2 0
-26 3 0
26 -2 -3 0
-27 -25 0
-27 -26 0
27 25 26 0
-28 -10 0
-28 -27 0
28 10 27 0
-29 -3 0
-29 -4 0
29 3 4 0
-30 10 0
-30 -29 0
30 -10 29 0
-31 1 0
-31 4 0
31 -1 -4 0
-32 -30 0
-32 -31 0
32 30 31 0
-33 -2 0
-33 -32 0
33 2 32 0
-34 2 0
-34 -4 0
34 -2 4 0
-35 -33 0
-35 -34 0
35 33 34 0
-36 -28 0
-36 35 0
36 28 -35 0
-37 -8 0
-37 -36 0
37 8 36 0
-38 -23 0
-38 -37 0
38 23 37 0
-39 -9 0
-39 -38 0
39 9 38 0
-40 8 0
-40 9 0
40 -8 -9 0
-41 -6 0
-41 40 0
41 6 -40 0
-42 -8 0
-42 10 0
42 8 -10 0
-43 -41 0
-43 -42 0
43 41 42 0
-44 2 0
-44 -43 0
44 -2 43 0
-45 2 0
-45 -8 0
45 -2 8 0
-46 -6 0
-46 -10 0
46 6 10 0
-47 -45 0
-47 46 0
47 45 -46 0
-48 -44 0
-48 -47 0
48 44 47 0
-49 1 0
-49 -3 0
49 -1 3 0
-50 -48 0
-50 49 0
50 48 -49 0
-51 3 0
-51 -10 0
51 -3 10 0
-52 -1 0
-52 -2 0
52 1 2 0
-53 51 0
-53 52 0
53 -51 -52 0
-54 41 0
-54 53 0
54 -41 -53 0
-55 -50 0
-55 -54 0
55 50 54 0
-56 -4 0
-56 -55 0
56 4 55 0
-57 -39 0
-57 -56 0
57 39 56 0
-58 -7 0
-58 -57 0
58 7 57 0
-59 -1 0
-59 -3 0
59 1 3 0
-60 12 0
-60 59 0
60 -12 -59 0
-61 -6 0
-61 -60 0
61 6 60 0
-62 7 0
-62 -61 0
62 -7 61 0
-63 -1 0
-63 -10 0
63 1 10 0
-64 1 0
-64 10 0
64 -1 -10 0
-65 -63 0
-65 -64 0
65 63 64 0
-66 2 0
-66 -65 0
66 -2 65 0
-67 3 0
-67 66 0
67 -3 -66 0
-68 6 0
-68 67 0
68 -6 -67 0
-69 -62 0
-69 -68 0
69 62 68 0
-70 9 0
-70 -69 0
70 -9 69 0
-71 -2 0
-71 -13 0
71 2 13 0
-72 -9 0
-72 -71 0
72 9 71 0
-73 -2 0
-73 3 0
73 2 -3 0
-74 17 0
-74 73 0
74 -17 -73 0
-75 -72 0
-75 -74 0
75 72 74 0
-76 -6 0
-76 -75 0
76 6 75 0
-77 -70 0
-77 -76 0
77 70 76 0
-78 4 0
-78 -77 0
78 -4 77 0
-79 -3 0
-79 -17 0
79 3 17 0
-80 7 0
-80 -79 0
80 -7 79 0
-81 29 0
-81 66 0
81 -29 -66 0
-82 -80 0
-82 -81 0
82 80 81 0
-83 6 0
-83 -82 0
83 -6 82 0
-84 3 0
-84 10 0
84 -3 -10 0
-85 -3 0
-85 19 0
85 3 -19 0
-86 -84 0
-86 -85 0
86 84 85 0
-87 -1 0
-87 -4 0
87 1 4 0
-88 -86 0
-88 87 0
88 86 -87 0
-89 7 0
-89 88 0
89 -7 -88 0
-90 -83 0
-90 -89 0
90 83 89 0
-91 9 0
-91 -90 0
91 -9 90 0
-92 3 0
-92 -4 0
92 -3 4 0
-93 12 0
-93 92 0
93 -12 -92 0
-94 2 0
-94 -9 0
94 -2 9 0
-95 -93 0
-95 -94 0
95 93 94 0
-96 -1 0
-96 -95 0
96 1 95 0
-97 -2 0
-97 -10 0
97 2 10 0
-98 -3 0
-98 7 0
98 3 -7 0
-99 4 0
-99 -98 0
99 -4 98 0
-100 97 0
-100 -99 0
100 -97 99 0
-101 -84 0
-101 -100 0
101 84 100 0
-102 -9 0
-102 -101 0
102 9 101 0
-103 -96 0
-103 -102 0
103 96 102 0
-104 -6 0
-104 -103 0
104 6 103 0
-105 -1 0
-105 29 0
105 1 -29 0
-106 -9 0
-106 97 0
106 9 -97 0
-107 105 0
-107 106 0
107 -105 -106 0
-108 -104 0
-108 -107 0
108 104 107 0
-109 -91 0
-109 108 0
109 91 -108 0
-110 -78 0
-110 109 0
110 78 -109 0
-111 -8 0
-111 -110 0
111 8 110 0
-112 -58 0
-112 -111 0
112 58 111 0
-113 -5 0
-113 -112 0
113 5 112 0
-114 -9 0
-114 -10 0
114 9 10 0
-115 -7 0
-115 114 0
115 7 -114 0
-116 5 0
-116 9 0
116 -5 -9 0
-117 7 0
-117 116 0
117 -7 -116 0
-118 -115 0
-118 -117 0
118 115 117 0
-119 6 0
-119 -118 0
119 -6 118 0
-120 7 0
-120 -10 0
120 -7 10 0
-121 5 0
-121 10 0
121 -5 -10 0
-122 -120 0
-122 -121 0
122 120 121 0
-123 6 0
-123 7 0
123 -6 -7 0
-124 -122 0
-124 -123 0
124 122 123 0
-125 -9 0
-125 124 0
125 9 -124 0
-126 -119 0
-126 -125 0
126 119 125 0
-127 -8 0
-127 -126 0
127 8 126 0
-128 -2 0
-128 -4 0
128 2 4 0
-129 -3 0
-129 128 0
129 3 -128 0
-130 127 0
-130 129 0
130 -127 -129 0
-131 -1 0
-131 130 0
131 1 -130 0
-132 -113 0
-132 -131 0
132 113 131 0
-133 1 0
-133 9 0
133 -1 -9 0
-134 84 0
-134 133 0
134 -84 -133 0
-135 -3 0
-135 -9 0
135 3 9 0
-136 63 0
-136 135 0
136 -63 -135 0
-137 -134 0
-137 -136 0
137 134 136 0
-138 6 0
-138 -137 0
138 -6 137 0
-139 -6 0
-139 9 0
139 6 -9 0
-140 7 0
-140 10 0
140 -7 -10 0
-141 -139 0
-141 -140 0
141 139 140 0
-142 -1 0
-142 -141 0
142 1 141 0
-143 9 0
-143 140 0
143 -9 -140 0
-144 -9 0
-144 46 0
144 9 -46 0
-145 -143 0
-145 -144 0
145 143 144 0
-146 -142 0
-146 145 0
146 142 -145 0
-147 3 0
-147 -146 0
147 -3 146 0
-148 -138 0
-148 -147 0
148 138 147 0
-149 -5 0
-149 -148 0
149 5 148 0
-150 -7 0
-150 10 0
150 7 -10 0
-151 6 0
-151 -9 0
151 -6 9 0
-152 -116 0
-152 -151 0
152 116 151 0
-153 -7 0
-153 -152 0
153 7 152 0
-154 -121 0
-154 -153 0
154 121 153 0
-155 -150 0
-155 -154 0
155 150 154 0
-156 59 0
-156 155 0
156 -59 -155 0
-157 -149 0
-157 -156 0
157 149 156 0
-158 -2 0
-158 -157 0
158 2 157 0
-159 7 0
-159 9 0
159 -7 -9 0
-160 -141 0
-160 -159 0
160 141 159 0
-161 1 0
-161 160 0
161 -1 -160 0
-162 -1 0
-162 6 0
162 1 -6 0
-163 -9 0
-163 10 0
163 9 -10 0
-164 162 0
-164 163 0
164 -162 -163 0
-165 -161 0
-165 -164 0
165 161 164 0
-166 -3 0
-166 -165 0
166 3 165 0
-167 -7 0
-167 -9 0
167 7 9 0
-168 -1 0
-168 7 0
168 1 -7 0
-169 -3 0
-169 -168 0
169 3 168 0
-170 139 0
-170 -169 0
170 -139 169 0
-171 -167 0
-171 -170 0
171 167 170 0
-172 -10 0
-172 -171 0
172 10 171 0
-173 -166 0
-173 -172 0
173 166 172 0
-174 2 0
-174 -173 0
174 -2 173 0
-175 -7 0
-175 9 0
175 7 -9 0
-176 51 0
-176 175 0
176 -51 -175 0
-177 -174 0
-177 -176 0
177 174 176 0
-178 -5 0
-178 -177 0
178 5 177 0
-179 -158 0
-179 -178 0
179 158 178 0
-180 -4 0
-180 -179 0
180 4 179 0
-181 6 0
-181 135 0
181 -6 -135 0
-182 -4 0
-182 -9 0
182 4 9 0
-183 -139 0
-183 -182 0
183 139 182 0
-184 1 0
-184 183 0
184 -1 -183 0
-185 -181 0
-185 -184 0
185 181 184 0
-186 -2 0
-186 -185 0
186 2 185 0
-187 4 0
-187 9 0
187 -4 -9 0
-188 -3 0
-188 -187 0
188 3 187 0
-189 -1 0
-189 -188 0
189 1 188 0
-190 -3 0
-190 9 0
190 3 -9 0
-191 1 0
-191 190 0
191 -1 -190 0
-192 1 0
-192 -6 0
192 -1 6 0
-193 -162 0
-193 -192 0
193 162 192 0
-194 -191 0
-194 193 0
194 191 -193 0
-195 2 0
-195 -194 0
195 -2 194 0
-196 -189 0
-196 -195 0
196 189 195 0
-197 -186 0
-197 196 0
197 186 -196 0
-198 -7 0
-198 -197 0
198 7 197 0
-199 -2 0
-199 7 0
199 2 -7 0
-200 3 0
-200 -199 0
200 -3 199 0
-201 -2 0
-201 -9 0
201 2 9 0
-202 -200 0
-202 -201 0
202 200 201 0
-203 4 0
-203 202 0
203 -4 -202 0
-204 -1 0
-204 9 0
204 1 -9 0
-205 -2 0
-205 -7 0
205 2 7 0
-206 1 0
-206 2 0
206 -1 -2 0
-207 -205 0
-207 -206 0
207 205 206 0
-208 -204 0
-208 207 0
208 204 -207 0
-209 -3 0
-209 208 0
209 3 -208 0
-210 -203 0
-210 -209 0
210 203 209 0
-211 -6 0
-211 -210 0
211 6 210 0
-212 -198 0
-212 -211 0
212 198 211 0
-213 -10 0
-213 -212 0
213 10 212 0
-214 2 0
-214 6 0
214 -2 -6 0
-215 4 0
-215 -9 0
215 -4 9 0
-216 -2 0
-216 -3 0
216 2 3 0
-217 215 0
-217 216 0
217 -215 -216 0
-218 -214 0
-218 -217 0
218 214 217 0
-219 1 0
-219 -218 0
219 -1 218 0
-220 6 0
-220 -29 0
220 -6 29 0
-221 4 0
-221 26 0
221 -4 -26 0
-222 -220 0
-222 -221 0
222 220 221 0
-223 -219 0
-223 222 0
223 219 -222 0
-224 7 0
-224 -223 0
224 -7 223 0
-225 151 0
-225 221 0
225 -151 -221 0
-226 -224 0
-226 -225 0
226 224 225 0
-227 10 0
-227 -226 0
227 -10 226 0
-228 -213 0
-228 -227 0
228 213 227 0
-229 -5 0
-229 -228 0
229 5 228 0
-230 -180 0
-230 -229 0
230 180 229 0
-231 -8 0
-231 -230 0
231 8 230 0
-232 3 0
-232 -52 0
232 -3 52 0
-233 79 0
-233 -206 0
233 -79 206 0
-234 -232 0
-234 -233 0
234 232 233 0
-235 -9 0
-235 234 0
235 9 -234 0
-236 19 0
-236 190 0
236 -19 -190 0
-237 -235 0
-237 -236 0
237 235 236 0
-238 8 0
-238 -237 0
238 -8 237 0
-239 -53 0
-239 -238 0
239 53 238 0
-240 -5 0
-240 -239 0
240 5 239 0
-241 -7 0
-241 240 0
241 7 -240 0
-242 11 0
-242 241 0
242 -11 -241 0
-243 -231 0
-243 -242 0
243 231 242 0
-244 -4 0
-244 10 0
244 4 -10 0
-245 -34 0
-245 -163 0
245 34 163 0
-246 -244 0
-246 -245 0
246 244 245 0
-247 -7 0
-247 246 0
247 7 -246 0
-248 4 0
-248 -190 0
248 -4 190 0
-249 6 0
-249 -248 0
249 -6 248 0
-250 3 0
-250 -6 0
250 -3 6 0
-251 4 0
-251 -250 0
251 -4 250 0
-252 9 0
-252 -251 0
252 -9 251 0
-253 -249 0
-253 -252 0
253 249 252 0
-254 2 0
-254 -253 0
254 -2 253 0
-255 -6 0
-255 7 0
255 6 -7 0
-256 -9 0
-256 255 0
256 9 -255 0
-257 128 0
-257 256 0
257 -128 -256 0
-258 -254 0
-258 -257 0
258 254 257 0
-259 -10 0
-259 -258 0
259 10 258 0
-260 -2 0
-260 -188 0
260 2 188 0
-261 3 0
-261 -175 0
261 -3 175 0
-262 -260 0
-262 -261 0
262 260 261 0
-263 6 0
-263 -262 0
263 -6 262 0
-264 2 0
-264 9 0
264 -2 -9 0
-265 7 0
-265 -264 0
265 -7 264 0
-266 -10 0
-266 -265 0
266 10 265 0
-267 -3 0
-267 -266 0
267 3 266 0
-268 -2 0
-268 163 0
268 2 -163 0
-269 -267 0
-269 -268 0
269 267 268 0
-270 4 0
-270 -269 0
270 -4 269 0
-271 7 0
-271 -9 0
271 -7 9 0
-272 2 0
-272 244 0
272 -2 -244 0
-273 271 0
-273 272 0
273 -271 -272 0
-274 -270 0
-274 -273 0
274 270 273 0
-275 -263 0
-275 274 0
275 263 -274 0
-276 -259 0
-276 275 0
276 259 -275 0
-277 -247 0
-277 276 0
277 247 -276 0
-278 -5 0
-278 -277 0
278 5 277 0
-279 9 0
-279 -10 0
279 -9 10 0
-280 -167 0
-280 -279 0
280 167 279 0
-281 -6 0
-281 280 0
281 6 -280 0
-282 -4 0
-282 5 0
282 4 -5 0
-283 -2 0
-283 282 0
283 2 -282 0
-284 -281 0
-284 283 0
284 281 -283 0
-285 -3 0
-285 284 0
285 3 -284 0
-286 -278 0
-286 -285 0
286 278 285 0
-287 -1 0
-287 -286 0
287 1 286 0
-288 9 0
-288 64 0
288 -9 -64 0
-289 -114 0
-289 -288 0
289 114 288 0
-290 6 0
-290 -289 0
290 -6 289 0
-291 -6 0
-291 84 0
291 6 -84 0
-292 -290 0
-292 -291 0
292 290 291 0
-293 2 0
-293 -292 0
293 -2 292 0
-294 -163 0
-294 -279 0
294 163 279 0
-295 -97 0
-295 294 0
295 97 -294 0
-296 3 0
-296 -295 0
296 -3 295 0
-297 -293 0
-297 -296 0
297 293 296 0
-298 -4 0
-298 -297 0
298 4 297 0
-299 -2 0
-299 4 0
299 2 -4 0
-300 6 0
-300 -299 0
300 -6 299 0
-301 -3 0
-301 114 0
301 3 -114 0
-302 -300 0
-302 301 0
302 300 -301 0
-303 -2 0
-303 9 0
303 2 -9 0
-304 30 0
-304 303 0
304 -30 -303 0
-305 -302 0
-305 -304 0
305 302 304 0
-306 1 0
-306 -305 0
306 -1 305 0
-307 -298 0
-307 -306 0
307 298 306 0
-308 -7 0
-308 -307 0
308 7 307 0
-309 2 0
-309 10 0
309 -2 -10 0
-310 3 0
-310 309 0
310 -3 -309 0
-311 -303 0
-311 -310 0
311 303 310 0
-312 7 0
-312 -311 0
312 -7 311 0
-313 9 0
-313 -51 0
313 -9 51 0
-314 3 0
-314 114 0
314 -3 -114 0
-315 -313 0
-315 -314 0
315 313 314 0
-316 -312 0
-316 315 0
316 312 -315 0
-317 4 0
-317 -316 0
317 -4 316 0
-318 7 0
-318 -12 0
318 -7 12 0
-319 -19 0
-319 -318 0
319 19 318 0
-320 9 0
-320 -319 0
320 -9 319 0
-321 -97 0
-321 -309 0
321 97 309 0
-322 182 0
-322 -321 0
322 -182 321 0
-323 -320 0
-323 -322 0
323 320 322 0
-324 -3 0
-324 -323 0
324 3 323 0
-325 -317 0
-325 -324 0
325 317 324 0
-326 192 0
-326 -325 0
326 -192 325 0
-327 -308 0
-327 -326 0
327 308 326 0
-328 -5 0
-328 -327 0
328 5 327 0
-329 -287 0
-329 -328 0
329 287 328 0
-330 -8 0
-330 -329 0
330 8 329 0
-331 -6 0
-331 -7 0
331 6 7 0
-332 40 0
-332 64 0
332 -40 -64 0
-333 -63 0
-333 -332 0
333 63 332 0
-334 2 0
-334 -333 0
334 -2 333 0
-335 17 0
-335 201 0
335 -17 -201 0
-336 -334 0
-336 -335 0
336 334 335 0
-337 -5 0
-337 -336 0
337 5 336 0
-338 29 0
-338 337 0
338 -29 -337 0
-339 331 0
-339 338 0
339 -331 -338 0
-340 -330 0
-340 -339 0
340 330 339 0
-341 4 0
-341 -150 0
341 -4 150 0
-342 3 0
-342 7 0
342 -3 -7 0
-343 -341 0
-343 -342 0
343 341 342 0
-344 -5 0
-344 -343 0
344 5 343 0
-345 9 0
-345 10 0
345 -9 -10 0
-346 331 0
-346 345 0
346 -331 -345 0
-347 -123 0
-347 -346 0
347 123 346 0
-348 -3 0
-348 282 0
348 3 -282 0
-349 -347 0
-349 348 0
349 347 -348 0
-350 -344 0
-350 -349 0
350 344 349 0
-351 -2 0
-351 -350 0
351 2 350 0
-352 6 0
-352 9 0
352 -6 -9 0
-353 150 0
-353 352 0
353 -150 -352 0
-354 -144 0
-354 -353 0
354 144 353 0
-355 3 0
-355 -354 0
355 -3 354 0
-356 6 0
-356 -175 0
356 -6 175 0
-357 4 0
-357 -356 0
357 -4 356 0
-358 -256 0
-358 -357 0
358 256 357 0
-359 -355 0
-359 358 0
359 355 -358 0
-360 2 0
-360 -359 0
360 -2 359 0
-361 3 0
-361 255 0
361 -3 -255 0
-362 -360 0
-362 -361 0
362 360 361 0
-363 -5 0
-363 -362 0
363 5 362 0
-364 -351 0
-364 -363 0
364 351 363 0
-365 -1 0
-365 -364 0
365 1 364 0
-366 3 0
-366 -183 0
366 -3 183 0
-367 -3 0
-367 352 0
367 3 -352 0
-368 -366 0
-368 -367 0
368 366 367 0
-369 -10 0
-369 -368 0
369 10 368 0
-370 6 0
-370 10 0
370 -6 -10 0
-371 -9 0
-371 370 0
371 9 -370 0
-372 -4 0
-372 -371 0
372 4 371 0
-373 -3 0
-373 -372 0
373 3 372 0
-374 -7 0
-374 -215 0
374 7 215 0
-375 4 0
-375 -6 0
375 -4 6 0
-376 -374 0
-376 -375 0
376 374 375 0
-377 -373 0
-377 -376 0
377 373 376 0
-378 -369 0
-378 377 0
378 369 -377 0
-379 2 0
-379 -378 0
379 -2 378 0
-380 -4 0
-380 255 0
380 4 -255 0
-381 181 0
-381 205 0
381 -181 -205 0
-382 -380 0
-382 -381 0
382 380 381 0
-383 -10 0
-383 -382 0
383 10 382 0
-384 -379 0
-384 -383 0
384 379 383 0
-385 1 0
-385 -384 0
385 -1 384 0
-386 -29 0
-386 255 0
386 29 -255 0
-387 4 0
-387 -7 0
387 -4 7 0
-388 3 0
-388 387 0
388 -3 -387 0
-389 -386 0
-389 -388 0
389 386 388 0
-390 10 0
-390 -389 0
390 -10 389 0
-391 -10 0
-391 255 0
391 10 -255 0
-392 -387 0
-392 -391 0
392 387 391 0
-393 -9 0
-393 -392 0
393 9 392 0
-394 -390 0
-394 -393 0
394 390 393 0
-395 -2 0
-395 -394 0
395 2 394 0
-396 -46 0
-396 -167 0
396 46 167 0
-397 -3 0
-397 -396 0
397 3 396 0
-398 -7 0
-398 -370 0
398 7 370 0
-399 -309 0
-399 -352 0
399 309 352 0
-400 398 0
-400 -399 0
400 -398 399 0
-401 -397 0
-401 -400 0
401 397 400 0
-402 4 0
-402 -401 0
402 -4 401 0
-403 2 0
-403 279 0
403 -2 -279 0
-404 255 0
-404 403 0
404 -255 -403 0
-405 -402 0
-405 -404 0
405 402 404 0
-406 -395 0
-406 405 0
406 395 -405 0
-407 -385 0
-407 406 0
407 385 -406 0
-408 -5 0
-408 -407 0
408 5 407 0
-409 -365 0
-409 -408 0
409 365 408 0
-410 -8 0
-410 -409 0
410 8 409 0
-411 -5 0
-411 232 0
411 5 -232 0
-412 4 0
-412 -5 0
412 -4 5 0
-413 -282 0
-413 -412 0
413 282 412 0
-414 -1 0
-414 216 0
414 1 -216 0
-415 -413 0
-415 414 0
415 413 -414 0
-416 -411 0
-416 -415 0
416 411 415 0
-417 -8 0
-417 -416 0
417 8 416 0
-418 123 0
-418 417 0
418 -123 -417 0
-419 52 0
-419 348 0
419 -52 -348 0
-420 412 0
-420 -414 0
420 -412 414 0
-421 -419 0
-421 -420 0
421 419 420 0
-422 -8 0
-422 -421 0
422 8 421 0
-423 123 0
-423 422 0
423 -123 -422 0
-424 -2 0
-424 -6 0
424 2 6 0
-425 3 0
-425 -424 0
425 -3 424 0
-426 -10 0
-426 -425 0
426 10 425 0
-427 -7 0
-427 426 0
427 7 -426 0
-428 6 0
-428 309 0
428 -6 -309 0
-429 -427 0
-429 -428 0
429 427 428 0
-430 1 0
-430 -429 0
430 -1 429 0
-431 -1 0
-431 -46 0
431 1 46 0
-432 3 0
-432 431 0
432 -3 -431 0
-433 -430 0
-433 -432 0
433 430 432 0
-434 9 0
-434 -433 0
434 -9 433 0
-435 3 0
-435 13 0
435 -3 -13 0
-436 -106 0
-436 -435 0
436 106 435 0
-437 6 0
-437 -436 0
437 -6 436 0
-438 -434 0
-438 -437 0
438 434 437 0
-439 -114 0
-439 -345 0
439 114 345 0
-440 7 0
-440 -439 0
440 -7 439 0
-441 -3 0
-441 10 0
441 3 -10 0
-442 -51 0
-442 -441 0
442 51 441 0
-443 440 0
-443 442 0
443 -440 -442 0
-444 438 0
-444 -443 0
444 -438 443 0
-445 -8 0
-445 -444 0
445 8 444 0
-446 8 0
-446 -10 0
446 -8 10 0
-447 9 0
-447 -446 0
447 -9 446 0
-448 73 0
-448 -447 0
448 -73 447 0
-449 -85 0
-449 -448 0
449 85 448 0
-450 -1 0
-450 -449 0
450 1 449 0
-451 133 0
-451 309 0
451 -133 -309 0
-452 -114 0
-452 -451 0
452 114 451 0
-453 8 0
-453 -452 0
453 -8 452 0
-454 -3 0
-454 453 0
454 3 -453 0
-455 -450 0
-455 -454 0
455 450 454 0
-456 331 0
-456 -455 0
456 -331 455 0
-457 -445 0
-457 -456 0
457 445 456 0
-458 -4 0
-458 -457 0
458 4 457 0
-459 -106 0
-459 -309 0
459 106 309 0
-460 1 0
-460 -459 0
460 -1 459 0
-461 3 0
-461 19 0
461 -3 -19 0
-462 -460 0
-462 -461 0
462 460 461 0
-463 -1 0
-463 -7 0
463 1 7 0
-464 -201 0
-464 321 0
464 201 -321 0
-465 463 0
-465 464 0
465 -463 -464 0
-466 462 0
-466 -465 0
466 -462 465 0
-467 -6 0
-467 -466 0
467 6 466 0
-468 -9 0
-468 206 0
468 9 -206 0
-469 1 0
-469 159 0
469 -1 -159 0
-470 -94 0
-470 -469 0
470 94 469 0
-471 -3 0
-471 -470 0
471 3 470 0
-472 -468 0
-472 -471 0
472 468 471 0
-473 10 0
-473 -472 0
473 -10 472 0
-474 -1 0
-474 -9 0
474 1 9 0
-475 -192 0
-475 -474 0
475 192 474 0
-476 19 0
-476 475 0
476 -19 -475 0
-477 -473 0
-477 -476 0
477 473 476 0
-478 -467 0
-478 477 0
478 467 -477 0
-479 4 0
-479 -478 0
479 -4 478 0
-480 -3 0
-480 6 0
480 3 -6 0
-481 -65 0
-481 480 0
481 65 -480 0
-482 -7 0
-482 -250 0
482 7 250 0
-483 13 0
-483 -482 0
483 -13 482 0
-484 -481 0
-484 -483 0
484 481 483 0
-485 -9 0
-485 -484 0
485 9 484 0
-486 3 0
-486 -114 0
486 -3 114 0
-487 -288 0
-487 -486 0
487 288 486 0
-488 7 0
-488 -487 0
488 -7 487 0
-489 -485 0
-489 -488 0
489 485 488 0
-490 2 0
-490 -489 0
490 -2 489 0
-491 -9 0
-491 -463 0
491 9 463 0
-492 -192 0
-492 -491 0
492 192 491 0
-493 -10 0
-493 -492 0
493 10 492 0
-494 -3 0
-494 493 0
494 3 -493 0
-495 3 0
-495 9 0
495 -3 -9 0
-496 13 0
-496 495 0
496 -13 -495 0
-497 -494 0
-497 -496 0
497 494 496 0
-498 -2 0
-498 -497 0
498 2 497 0
-499 -490 0
-499 -498 0
499 490 498 0
-500 -479 0
-500 499 0
500 479 -499 0
-501 -8 0
-501 -500 0
501 8 500 0
-502 -458 0
-502 -501 0
502 458 501 0
-503 -5 0
-503 -502 0
503 5 502 0
-504 -2 0
-504 5 0
504 2 -5 0
-505 105 0
-505 504 0
505 -105 -504 0
-506 -123 0
-506 -505 0
506 123 505 0
-507 -8 0
-507 -506 0
507 8 506 0
-508 -503 0
-508 -507 0
508 503 507 0
-509 -4 0
-509 9 0
509 4 -9 0
-510 -140 0
-510 -509 0
510 140 509 0
-511 1 0
-511 -510 0
511 -1 510 0
-512 204 0
-512 387 0
512 -204 -387 0
-513 -271 0
-513 -512 0
513 271 512 0
-514 10 0
-514 -513 0
514 -10 513 0
-515 -10 0
-515 159 0
515 10 -159 0
-516 -514 0
-516 -515 0
516 514 515 0
-517 -511 0
-517 516 0
517 511 -516 0
-518 -3 0
-518 -517 0
518 3 517 0
-519 -4 0
-519 345 0
519 4 -345 0
-520 4 0
-520 -345 0
520 -4 345 0
-521 -133 0
-521 -520 0
521 133 520 0
-522 -7 0
-522 -521 0
522 7 521 0
-523 -519 0
-523 -522 0
523 519 522 0
-524 3 0
-524 -523 0
524 -3 523 0
-525 -4 0
-525 115 0
525 4 -115 0
-526 -524 0
-526 -525 0
526 524 525 0
-527 -518 0
-527 526 0
527 518 -526 0
-528 2 0
-528 -527 0
528 -2 527 0
-529 -63 0
-529 -163 0
529 63 163 0
-530 -7 0
-530 -529 0
530 7 529 0
-531 -3 0
-531 530 0
531 3 -530 0
-532 -1 0
-532 440 0
532 1 -440 0
-533 -531 0
-533 -532 0
533 531 532 0
-534 4 0
-534 -533 0
534 -4 533 0
-535 -1 0
-535 135 0
535 1 -135 0
-536 -469 0
-536 -535 0
536 469 535 0
-537 -10 0
-537 -536 0
537 10 536 0
-538 -7 0
-538 -182 0
538 7 182 0
-539 486 0
-539 -538 0
539 -486 538 0
-540 -537 0
-540 -539 0
540 537 539 0
-541 -534 0
-541 540 0
541 534 -540 0
-542 -2 0
-542 -541 0
542 2 541 0
-543 -3 0
-543 4 0
543 3 -4 0
-544 -10 0
-544 271 0
544 10 -271 0
-545 543 0
-545 544 0
545 -543 -544 0
-546 -542 0
-546 -545 0
546 542 545 0
-547 -528 0
-547 546 0
547 528 -546 0
-548 -6 0
-548 -547 0
548 6 547 0
-549 1 0
-549 -442 0
549 -1 442 0
-550 6 0
-550 -10 0
550 -6 10 0
-551 -1 0
-551 550 0
551 1 -550 0
-552 -549 0
-552 -551 0
552 549 551 0
-553 9 0
-553 -552 0
553 -9 552 0
-554 84 0
-554 151 0
554 -84 -151 0
-555 -553 0
-555 -554 0
555 553 554 0
-556 -4 0
-556 -555 0
556 4 555 0
-557 4 0
-557 6 0
557 -4 -6 0
-558 -51 0
-558 -557 0
558 51 557 0
-559 -1 0
-559 -558 0
559 1 558 0
-560 4 0
-560 480 0
560 -4 -480 0
-561 -559 0
-561 -560 0
561 559 560 0
-562 -9 0
-562 -561 0
562 9 561 0
-563 543 0
-563 550 0
563 -543 -550 0
-564 -562 0
-564 -563 0
564 562 563 0
-565 -556 0
-565 564 0
565 556 -564 0
-566 2 0
-566 -565 0
566 -2 565 0
-567 3 0
-567 4 0
567 -3 -4 0
-568 -3 0
-568 -31 0
568 3 31 0
-569 -439 0
-569 -568 0
569 439 568 0
-570 -567 0
-570 -569 0
570 567 569 0
-571 6 0
-571 -570 0
571 -6 570 0
-572 31 0
-572 314 0
572 -31 -314 0
-573 -571 0
-573 -572 0
573 571 572 0
-574 -2 0
-574 -573 0
574 2 573 0
-575 9 0
-575 370 0
575 -9 -370 0
-576 567 0
-576 575 0
576 -567 -575 0
-577 -574 0
-577 -576 0
577 574 576 0
-578 -566 0
-578 577 0
578 566 -577 0
-579 -7 0
-579 -578 0
579 7 578 0
-580 -548 0
-580 -579 0
580 548 579 0
-581 -8 0
-581 -580 0
581 8 580 0
-582 3 0
-582 -294 0
582 -3 294 0
-583 -1 0
-583 582 0
583 1 -582 0
-584 -10 0
-584 40 0
584 10 -40 0
-585 49 0
-585 584 0
585 -49 -584 0
-586 -583 0
-586 -585 0
586 583 585 0
-587 205 0
-587 -586 0
587 -205 586 0
-588 11 0
-588 587 0
588 -11 -587 0
-589 -581 0
-589 -588 0
589 581 588 0
-590 -5 0
-590 -589 0
590 5 589 0
-591 24 0
-591 87 0
591 -24 -87 0
-592 5 0
-592 -8 0
592 -5 8 0
-593 205 0
-593 592 0
593 -205 -592 0
-594 591 0
-594 593 0
594 -591 -593 0
-595 -590 0
-595 -594 0
595 590 594 0
-596 216 0
-596 550 0
596 -216 -550 0
-597 -272 0
-597 -596 0
597 272 596 0
-598 -1 0
-598 -597 0
598 1 597 0
-599 -2 0
-599 6 0
599 2 -6 0
-600 -11 0
-600 -599 0
600 11 599 0
-601 -97 0
-601 -244 0
601 97 244 0
-602 -600 0
-602 601 0
602 600 -601 0
-603 -3 0
-603 602 0
603 3 -602 0
-604 321 0
-604 -424 0
604 -321 424 0
-605 92 0
-605 -604 0
605 -92 604 0
-606 -603 0
-606 -605 0
606 603 605 0
-607 -598 0
-607 606 0
607 598 -606 0
-608 -9 0
-608 -607 0
608 9 607 0
-609 -87 0
-609 -600 0
609 87 600 0
-610 -3 0
-610 609 0
610 3 -609 0
-611 128 0
-611 192 0
611 -128 -192 0
-612 -610 0
-612 -611 0
612 610 611 0
-613 9 0
-613 -612 0
613 -9 612 0
-614 -6 0
-614 -204 0
614 6 204 0
-615 -557 0
-615 -614 0
615 557 614 0
-616 26 0
-616 615 0
616 -26 -615 0
-617 -613 0
-617 -616 0
617 613 616 0
-618 -10 0
-618 -617 0
618 10 617 0
-619 -250 0
-619 -557 0
619 250 557 0
-620 -248 0
-620 -619 0
620 248 619 0
-621 2 0
-621 620 0
621 -2 -620 0
-622 -162 0
-622 299 0
622 162 -299 0
-623 190 0
-623 622 0
623 -190 -622 0
-624 -621 0
-624 -623 0
624 621 623 0
-625 10 0
-625 -624 0
625 -10 624 0
-626 -618 0
-626 -625 0
626 618 625 0
-627 -608 0
-627 626 0
627 608 -626 0
-628 -7 0
-628 -627 0
628 7 627 0
-629 -2 0
-629 -114 0
629 2 114 0
-630 3 0
-630 -629 0
630 -3 629 0
-631 -318 0
-631 -630 0
631 318 630 0
-632 1 0
-632 -631 0
632 -1 631 0
-633 -7 0
-633 -94 0
633 7 94 0
-634 3 0
-634 -633 0
634 -3 633 0
-635 9 0
-635 -19 0
635 -9 19 0
-636 318 0
-636 -635 0
636 -318 635 0
-637 -634 0
-637 -636 0
637 634 636 0
-638 -632 0
-638 637 0
638 632 -637 0
-639 375 0
-639 -638 0
639 -375 638 0
-640 -628 0
-640 -639 0
640 628 639 0
-641 -8 0
-641 -640 0
641 8 640 0
-642 -135 0
-642 -495 0
642 135 495 0
-643 -1 0
-643 -642 0
643 1 642 0
-644 -191 0
-644 -643 0
644 191 643 0
-645 -10 0
-645 -644 0
645 10 644 0
-646 84 0
-646 474 0
646 -84 -474 0
-647 -645 0
-647 -646 0
647 645 646 0
-648 -2 0
-648 -647 0
648 2 647 0
-649 309 0
-649 535 0
649 -309 -535 0
-650 -648 0
-650 -649 0
650 648 649 0
-651 11 0
-651 -650 0
651 -11 650 0
-652 -7 0
-652 651 0
652 7 -651 0
-653 -641 0
-653 -652 0
653 641 652 0
-654 -5 0
-654 -653 0
654 5 653 0
-655 11 0
-655 592 0
655 -11 -592 0
-656 414 0
-656 655 0
656 -414 -655 0
-657 -654 0
-657 -656 0
657 654 656 0
-658 5 0
-658 -129 0
658 -5 129 0
-659 192 0
-659 388 0
659 -192 -388 0
-660 -8 0
-660 -659 0
660 8 659 0
-661 -629 0
-661 -660 0
661 629 660 0
-662 -8 0
-662 -129 0
662 8 129 0
-663 1 0
-663 -662 0
663 -1 662 0
-664 8 0
-664 -92 0
664 -8 92 0
-665 -4 0
-665 -46 0
665 4 46 0
-666 4 0
-666 -140 0
666 -4 140 0
-667 204 0
-667 -666 0
667 -204 666 0
-668 -665 0
-668 -667 0
668 665 667 0
-669 -3 0
-669 -668 0
669 3 668 0
-670 -345 0
-670 388 0
670 345 -388 0
-671 -6 0
-671 670 0
671 6 -670 0
-672 -7 0
-672 -575 0
672 7 575 0
-673 -4 0
-673 -672 0
673 4 672 0
-674 -671 0
-674 -673 0
674 671 673 0
-675 -669 0
-675 674 0
675 669 -674 0
-676 2 0
-676 -675 0
676 -2 675 0
-677 204 0
-677 -398 0
677 -204 398 0
-678 -140 0
-678 -677 0
678 140 677 0
-679 4 0
-679 -678 0
679 -4 678 0
-680 5 0
-680 -331 0
680 -5 331 0
-681 -4 0
-681 -680 0
681 4 680 0
-682 -679 0
-682 -681 0
682 679 681 0
-683 -3 0
-683 -682 0
683 3 682 0
-684 -9 0
-684 -370 0
684 9 370 0
-685 665 0
-685 -684 0
685 -665 684 0
-686 3 0
-686 685 0
686 -3 -685 0
-687 -683 0
-687 -686 0
687 683 686 0
-688 -2 0
-688 -687 0
688 2 687 0
-689 -6 0
-689 -92 0
689 6 92 0
-690 7 0
-690 -689 0
690 -7 689 0
-691 -688 0
-691 -690 0
691 688 690 0
-692 -676 0
-692 691 0
692 676 -691 0
-693 -664 0
-693 692 0
693 664 -692 0
-694 -663 0
-694 693 0
694 663 -693 0
-695 -661 0
-695 694 0
695 661 -694 0
-696 -658 0
-696 695 0
696 658 -695 0
-697 -9 0
-697 -18 0
697 9 18 0
-698 -14 0
-698 -697 0
698 14 697 0
-699 412 0
-699 -698 0
699 -412 698 0
-700 3 0
-700 699 0
700 -3 -699 0
-701 -419 0
-701 -700 0
701 419 700 0
-702 -8 0
-702 -701 0
702 8 701 0
-703 331 0
-703 702 0
703 -331 -702 0
703 0
